0 77 
1 81 
2 81 
3 88 
4 82 
5 80 
6 79 
7 78 
8 78 
9 80 
10 78 
11 75 
12 76 
13 73 
14 71 
15 71 
16 71 
17 74 
18 71 
19 67 
20 66 
21 63 
22 63 
23 63 
24 68 
25 67 
26 65 
27 61 
28 64 
29 61 
30 60 
31 54 
32 51 
33 49 
34 47 
35 49 
36 43 
37 43 
38 47 
39 44 
40 41 
41 44 
42 41 
43 39 
44 40 
45 42 
46 45 
47 44 
48 40 
49 39 
50 40 
51 40 
52 40 
53 37 
54 34 
55 29 
56 27 
57 29 
58 29 
59 27 
60 24 
61 23 
62 23 
63 22 
64 22 
65 21 
66 21 
67 16 
68 15 
69 13 
70 11 
71 13 
72 13 
73 12 
74 9 
75 6 
76 7 
77 6 
78 5 
79 4 
80 2 
81 2 
82 2 
83 2 
84 3 
85 0 
86 0 

